NAME : sample_40
COMMENT : Sample TSP instance with 40 cities
TYPE : TSP
DIMENSION : 40
EDGE_WEIGHT_TYPE : EUC_2D
NODE_COORD_SECTION
1 177 350
2 452 371
3 977 146
4 473 211
5 298 555
6 146 873
7 56 783
8 760 387
9 501 685
10 820 383
11 332 825
12 532 717
13 269 75
14 354 596
15 14 960
16 82 883
17 151 645
18 486 701
19 836 73
20 45 284
21 525 936
22 123 133
23 907 462
24 77 671
25 541 151
26 995 911
27 289 11
28 335 721
29 201 604
30 681 895
31 898 195
32 986 297
33 491 966
34 650 224
35 793 565
36 746 959
37 274 82
38 464 279
39 32 770
40 23 77
EOF
